certificates/rado_a5_c229_N45.cnf
c Rad2 upper bound instance: x1 + 5*x2 - x3 = 229, interval [1,45]
p cnf 45 378
1 5 45 0
-1 -5 -45 0
2 6 45 0
-2 -6 -45 0
3 7 45 0
-3 -7 -45 0
4 8 45 0
-4 -8 -45 0
5 9 45 0
-5 -9 -45 0
1 10 44 0
-1 -10 -44 0
6 10 45 0
-6 -10 -45 0
2 11 44 0
-2 -11 -44 0
7 11 45 0
-7 -11 -45 0
3 12 44 0
-3 -12 -44 0
8 12 45 0
-8 -12 -45 0
4 13 44 0
-4 -13 -44 0
9 13 45 0
-9 -13 -45 0
5 14 44 0
-5 -14 -44 0
10 14 45 0
-10 -14 -45 0
1 15 43 0
-1 -15 -43 0
6 15 44 0
-6 -15 -44 0
11 15 45 0
-11 -15 -45 0
2 16 43 0
-2 -16 -43 0
7 16 44 0
-7 -16 -44 0
12 16 45 0
-12 -16 -45 0
3 17 43 0
-3 -17 -43 0
8 17 44 0
-8 -17 -44 0
13 17 45 0
-13 -17 -45 0
4 18 43 0
-4 -18 -43 0
9 18 44 0
-9 -18 -44 0
14 18 45 0
-14 -18 -45 0
5 19 43 0
-5 -19 -43 0
10 19 44 0
-10 -19 -44 0
15 19 45 0
-15 -19 -45 0
1 20 42 0
-1 -20 -42 0
6 20 43 0
-6 -20 -43 0
11 20 44 0
-11 -20 -44 0
16 20 45 0
-16 -20 -45 0
2 21 42 0
-2 -21 -42 0
7 21 43 0
-7 -21 -43 0
12 21 44 0
-12 -21 -44 0
17 21 45 0
-17 -21 -45 0
3 22 42 0
-3 -22 -42 0
8 22 43 0
-8 -22 -43 0
13 22 44 0
-13 -22 -44 0
18 22 45 0
-18 -22 -45 0
4 23 42 0
-4 -23 -42 0
9 23 43 0
-9 -23 -43 0
14 23 44 0
-14 -23 -44 0
19 23 45 0
-19 -23 -45 0
5 24 42 0
-5 -24 -42 0
10 24 43 0
-10 -24 -43 0
15 24 44 0
-15 -24 -44 0
20 24 45 0
-20 -24 -45 0
1 25 41 0
-1 -25 -41 0
6 25 42 0
-6 -25 -42 0
11 25 43 0
-11 -25 -43 0
16 25 44 0
-16 -25 -44 0
21 25 45 0
-21 -25 -45 0
2 26 41 0
-2 -26 -41 0
7 26 42 0
-7 -26 -42 0
12 26 43 0
-12 -26 -43 0
17 26 44 0
-17 -26 -44 0
22 26 45 0
-22 -26 -45 0
3 27 41 0
-3 -27 -41 0
8 27 42 0
-8 -27 -42 0
13 27 43 0
-13 -27 -43 0
18 27 44 0
-18 -27 -44 0
23 27 45 0
-23 -27 -45 0
4 28 41 0
-4 -28 -41 0
9 28 42 0
-9 -28 -42 0
14 28 43 0
-14 -28 -43 0
19 28 44 0
-19 -28 -44 0
24 28 45 0
-24 -28 -45 0
5 29 41 0
-5 -29 -41 0
10 29 42 0
-10 -29 -42 0
15 29 43 0
-15 -29 -43 0
20 29 44 0
-20 -29 -44 0
25 29 45 0
-25 -29 -45 0
1 30 40 0
-1 -30 -40 0
6 30 41 0
-6 -30 -41 0
11 30 42 0
-11 -30 -42 0
16 30 43 0
-16 -30 -43 0
21 30 44 0
-21 -30 -44 0
26 30 45 0
-26 -30 -45 0
2 31 40 0
-2 -31 -40 0
7 31 41 0
-7 -31 -41 0
12 31 42 0
-12 -31 -42 0
17 31 43 0
-17 -31 -43 0
22 31 44 0
-22 -31 -44 0
27 31 45 0
-27 -31 -45 0
3 32 40 0
-3 -32 -40 0
8 32 41 0
-8 -32 -41 0
13 32 42 0
-13 -32 -42 0
18 32 43 0
-18 -32 -43 0
23 32 44 0
-23 -32 -44 0
28 32 45 0
-28 -32 -45 0
4 33 40 0
-4 -33 -40 0
9 33 41 0
-9 -33 -41 0
14 33 42 0
-14 -33 -42 0
19 33 43 0
-19 -33 -43 0
24 33 44 0
-24 -33 -44 0
29 33 45 0
-29 -33 -45 0
5 34 40 0
-5 -34 -40 0
10 34 41 0
-10 -34 -41 0
15 34 42 0
-15 -34 -42 0
20 34 43 0
-20 -34 -43 0
25 34 44 0
-25 -34 -44 0
30 34 45 0
-30 -34 -45 0
1 35 39 0
-1 -35 -39 0
6 35 40 0
-6 -35 -40 0
11 35 41 0
-11 -35 -41 0
16 35 42 0
-16 -35 -42 0
21 35 43 0
-21 -35 -43 0
26 35 44 0
-26 -35 -44 0
31 35 45 0
-31 -35 -45 0
2 36 39 0
-2 -36 -39 0
7 36 40 0
-7 -36 -40 0
12 36 41 0
-12 -36 -41 0
17 36 42 0
-17 -36 -42 0
22 36 43 0
-22 -36 -43 0
27 36 44 0
-27 -36 -44 0
32 36 45 0
-32 -36 -45 0
3 37 39 0
-3 -37 -39 0
8 37 40 0
-8 -37 -40 0
13 37 41 0
-13 -37 -41 0
18 37 42 0
-18 -37 -42 0
23 37 43 0
-23 -37 -43 0
28 37 44 0
-28 -37 -44 0
33 37 45 0
-33 -37 -45 0
4 38 39 0
-4 -38 -39 0
9 38 40 0
-9 -38 -40 0
14 38 41 0
-14 -38 -41 0
19 38 42 0
-19 -38 -42 0
24 38 43 0
-24 -38 -43 0
29 38 44 0
-29 -38 -44 0
34 38 45 0
-34 -38 -45 0
5 39 0
-5 -39 0
10 39 40 0
-10 -39 -40 0
15 39 41 0
-15 -39 -41 0
20 39 42 0
-20 -39 -42 0
25 39 43 0
-25 -39 -43 0
30 39 44 0
-30 -39 -44 0
35 39 45 0
-35 -39 -45 0
1 38 40 0
-1 -38 -40 0
6 39 40 0
-6 -39 -40 0
11 40 0
-11 -40 0
16 40 41 0
-16 -40 -41 0
21 40 42 0
-21 -40 -42 0
26 40 43 0
-26 -40 -43 0
31 40 44 0
-31 -40 -44 0
36 40 45 0
-36 -40 -45 0
2 38 41 0
-2 -38 -41 0
7 39 41 0
-7 -39 -41 0
12 40 41 0
-12 -40 -41 0
17 41 0
-17 -41 0
22 41 42 0
-22 -41 -42 0
27 41 43 0
-27 -41 -43 0
32 41 44 0
-32 -41 -44 0
37 41 45 0
-37 -41 -45 0
3 38 42 0
-3 -38 -42 0
8 39 42 0
-8 -39 -42 0
13 40 42 0
-13 -40 -42 0
18 41 42 0
-18 -41 -42 0
23 42 0
-23 -42 0
28 42 43 0
-28 -42 -43 0
33 42 44 0
-33 -42 -44 0
38 42 45 0
-38 -42 -45 0
4 38 43 0
-4 -38 -43 0
9 39 43 0
-9 -39 -43 0
14 40 43 0
-14 -40 -43 0
19 41 43 0
-19 -41 -43 0
24 42 43 0
-24 -42 -43 0
29 43 0
-29 -43 0
34 43 44 0
-34 -43 -44 0
39 43 45 0
-39 -43 -45 0
5 38 44 0
-5 -38 -44 0
10 39 44 0
-10 -39 -44 0
15 40 44 0
-15 -40 -44 0
20 41 44 0
-20 -41 -44 0
25 42 44 0
-25 -42 -44 0
30 43 44 0
-30 -43 -44 0
35 44 0
-35 -44 0
40 44 45 0
-40 -44 -45 0
1 37 45 0
-1 -37 -45 0
6 38 45 0
-6 -38 -45 0
11 39 45 0
-11 -39 -45 0
16 40 45 0
-16 -40 -45 0
21 41 45 0
-21 -41 -45 0
26 42 45 0
-26 -42 -45 0
31 43 45 0
-31 -43 -45 0
36 44 45 0
-36 -44 -45 0
41 45 0
-41 -45 0
