certificates/rado_a5_c229_N45.drat
-45 0
41 0
-17 0
13 0
21 0
-37 0
33 0
1 0
-9 0
-25 0
5 0
29 0
-39 0
0
